auto_projections = .true.
mp_grid = 6, 6, 4
num_bands = 86
num_iter = 400
num_wann = 72
postproc_setup = .true.

begin atoms_cart
ang
Ca         3.1235488629       7.2135064307       5.6428504986 
Ca         3.1235488629       3.6067243943       4.3973752156 
Ca         3.1235488629       3.6067243943       0.6227376415 
Ca         3.1235488629       7.2135064307       9.4174880727 
Mg         3.1235488629       0.0000000000       5.0201128571 
Mg         3.1235488629       0.0000000000       0.0000000000 
Mg         1.5416212587       9.9069482534       7.5301692857 
Mg         3.1235488629       1.8266571732       7.5301692857 
Mg         4.7054764671       9.9069482534       7.5301692857 
Mg         4.7054764671       0.9132825716       2.5100564285 
Mg         3.1235488629       8.9935736518       2.5100564285 
Mg         1.5416212587       0.9132825716       2.5100564285 
end atoms_cart

begin kpoints
      0.0000000000       0.0000000000       0.0000000000
      0.0000000000       0.0000000000       0.2500000000
      0.0000000000       0.0000000000       0.5000000000
      0.0000000000       0.0000000000       0.7500000000
      0.0000000000       0.1666666667       0.0000000000
      0.0000000000       0.1666666667       0.2500000000
      0.0000000000       0.1666666667       0.5000000000
      0.0000000000       0.1666666667       0.7500000000
      0.0000000000       0.3333333333       0.0000000000
      0.0000000000       0.3333333333       0.2500000000
      0.0000000000       0.3333333333       0.5000000000
      0.0000000000       0.3333333333       0.7500000000
      0.0000000000       0.5000000000       0.0000000000
      0.0000000000       0.5000000000       0.2500000000
      0.0000000000       0.5000000000       0.5000000000
      0.0000000000       0.5000000000       0.7500000000
      0.0000000000       0.6666666667       0.0000000000
      0.0000000000       0.6666666667       0.2500000000
      0.0000000000       0.6666666667       0.5000000000
      0.0000000000       0.6666666667       0.7500000000
      0.0000000000       0.8333333333       0.0000000000
      0.0000000000       0.8333333333       0.2500000000
      0.0000000000       0.8333333333       0.5000000000
      0.0000000000       0.8333333333       0.7500000000
      0.1666666667       0.0000000000       0.0000000000
      0.1666666667       0.0000000000       0.2500000000
      0.1666666667       0.0000000000       0.5000000000
      0.1666666667       0.0000000000       0.7500000000
      0.1666666667       0.1666666667       0.0000000000
      0.1666666667       0.1666666667       0.2500000000
      0.1666666667       0.1666666667       0.5000000000
      0.1666666667       0.1666666667       0.7500000000
      0.1666666667       0.3333333333       0.0000000000
      0.1666666667       0.3333333333       0.2500000000
      0.1666666667       0.3333333333       0.5000000000
      0.1666666667       0.3333333333       0.7500000000
      0.1666666667       0.5000000000       0.0000000000
      0.1666666667       0.5000000000       0.2500000000
      0.1666666667       0.5000000000       0.5000000000
      0.1666666667       0.5000000000       0.7500000000
      0.1666666667       0.6666666667       0.0000000000
      0.1666666667       0.6666666667       0.2500000000
      0.1666666667       0.6666666667       0.5000000000
      0.1666666667       0.6666666667       0.7500000000
      0.1666666667       0.8333333333       0.0000000000
      0.1666666667       0.8333333333       0.2500000000
      0.1666666667       0.8333333333       0.5000000000
      0.1666666667       0.8333333333       0.7500000000
      0.3333333333       0.0000000000       0.0000000000
      0.3333333333       0.0000000000       0.2500000000
      0.3333333333       0.0000000000       0.5000000000
      0.3333333333       0.0000000000       0.7500000000
      0.3333333333       0.1666666667       0.0000000000
      0.3333333333       0.1666666667       0.2500000000
      0.3333333333       0.1666666667       0.5000000000
      0.3333333333       0.1666666667       0.7500000000
      0.3333333333       0.3333333333       0.0000000000
      0.3333333333       0.3333333333       0.2500000000
      0.3333333333       0.3333333333       0.5000000000
      0.3333333333       0.3333333333       0.7500000000
      0.3333333333       0.5000000000       0.0000000000
      0.3333333333       0.5000000000       0.2500000000
      0.3333333333       0.5000000000       0.5000000000
      0.3333333333       0.5000000000       0.7500000000
      0.3333333333       0.6666666667       0.0000000000
      0.3333333333       0.6666666667       0.2500000000
      0.3333333333       0.6666666667       0.5000000000
      0.3333333333       0.6666666667       0.7500000000
      0.3333333333       0.8333333333       0.0000000000
      0.3333333333       0.8333333333       0.2500000000
      0.3333333333       0.8333333333       0.5000000000
      0.3333333333       0.8333333333       0.7500000000
      0.5000000000       0.0000000000       0.0000000000
      0.5000000000       0.0000000000       0.2500000000
      0.5000000000       0.0000000000       0.5000000000
      0.5000000000       0.0000000000       0.7500000000
      0.5000000000       0.1666666667       0.0000000000
      0.5000000000       0.1666666667       0.2500000000
      0.5000000000       0.1666666667       0.5000000000
      0.5000000000       0.1666666667       0.7500000000
      0.5000000000       0.3333333333       0.0000000000
      0.5000000000       0.3333333333       0.2500000000
      0.5000000000       0.3333333333       0.5000000000
      0.5000000000       0.3333333333       0.7500000000
      0.5000000000       0.5000000000       0.0000000000
      0.5000000000       0.5000000000       0.2500000000
      0.5000000000       0.5000000000       0.5000000000
      0.5000000000       0.5000000000       0.7500000000
      0.5000000000       0.6666666667       0.0000000000
      0.5000000000       0.6666666667       0.2500000000
      0.5000000000       0.6666666667       0.5000000000
      0.5000000000       0.6666666667       0.7500000000
      0.5000000000       0.8333333333       0.0000000000
      0.5000000000       0.8333333333       0.2500000000
      0.5000000000       0.8333333333       0.5000000000
      0.5000000000       0.8333333333       0.7500000000
      0.6666666667       0.0000000000       0.0000000000
      0.6666666667       0.0000000000       0.2500000000
      0.6666666667       0.0000000000       0.5000000000
      0.6666666667       0.0000000000       0.7500000000
      0.6666666667       0.1666666667       0.0000000000
      0.6666666667       0.1666666667       0.2500000000
      0.6666666667       0.1666666667       0.5000000000
      0.6666666667       0.1666666667       0.7500000000
      0.6666666667       0.3333333333       0.0000000000
      0.6666666667       0.3333333333       0.2500000000
      0.6666666667       0.3333333333       0.5000000000
      0.6666666667       0.3333333333       0.7500000000
      0.6666666667       0.5000000000       0.0000000000
      0.6666666667       0.5000000000       0.2500000000
      0.6666666667       0.5000000000       0.5000000000
      0.6666666667       0.5000000000       0.7500000000
      0.6666666667       0.6666666667       0.0000000000
      0.6666666667       0.6666666667       0.2500000000
      0.6666666667       0.6666666667       0.5000000000
      0.6666666667       0.6666666667       0.7500000000
      0.6666666667       0.8333333333       0.0000000000
      0.6666666667       0.8333333333       0.2500000000
      0.6666666667       0.8333333333       0.5000000000
      0.6666666667       0.8333333333       0.7500000000
      0.8333333333       0.0000000000       0.0000000000
      0.8333333333       0.0000000000       0.2500000000
      0.8333333333       0.0000000000       0.5000000000
      0.8333333333       0.0000000000       0.7500000000
      0.8333333333       0.1666666667       0.0000000000
      0.8333333333       0.1666666667       0.2500000000
      0.8333333333       0.1666666667       0.5000000000
      0.8333333333       0.1666666667       0.7500000000
      0.8333333333       0.3333333333       0.0000000000
      0.8333333333       0.3333333333       0.2500000000
      0.8333333333       0.3333333333       0.5000000000
      0.8333333333       0.3333333333       0.7500000000
      0.8333333333       0.5000000000       0.0000000000
      0.8333333333       0.5000000000       0.2500000000
      0.8333333333       0.5000000000       0.5000000000
      0.8333333333       0.5000000000       0.7500000000
      0.8333333333       0.6666666667       0.0000000000
      0.8333333333       0.6666666667       0.2500000000
      0.8333333333       0.6666666667       0.5000000000
      0.8333333333       0.6666666667       0.7500000000
      0.8333333333       0.8333333333       0.0000000000
      0.8333333333       0.8333333333       0.2500000000
      0.8333333333       0.8333333333       0.5000000000
      0.8333333333       0.8333333333       0.7500000000
end kpoints

begin projections
end projections

begin unit_cell_cart
ang
      3.1235488629      -5.4101154125       0.0000000000
      3.1235488629       5.4101154125       0.0000000000
      0.0000000000       0.0000000000      10.0402257142
end unit_cell_cart
