auto_projections = .true.
conv_tol =   3.0000000000d-07
conv_window = 3
dis_conv_tol =   3.0000000000d-07
dis_num_iter = 400
dis_proj_max =   9.0000000000d-01
dis_proj_min =   1.0000000000d-01
exclude_bands = 1-4
fermi_energy =   6.3110000000d+00
mp_grid = 11, 11, 5
num_bands = 21
num_iter = 400
num_wann = 17
postproc_setup = .true.
use_ws_distance = .true.

begin atoms_cart
ang
Fe         0.0000000000       0.0000000000       0.0000000000 
Br         5.2020635002       1.8023993833       5.3570235967 
Br         4.1624586959      -0.0000000000       1.2987860595 
end atoms_cart

begin kpoints
      0.0000000000       0.0000000000       0.0000000000
      0.0000000000       0.0000000000       0.2000000000
      0.0000000000       0.0000000000       0.4000000000
      0.0000000000       0.0000000000       0.6000000000
      0.0000000000       0.0000000000       0.8000000000
      0.0000000000       0.0909090909       0.0000000000
      0.0000000000       0.0909090909       0.2000000000
      0.0000000000       0.0909090909       0.4000000000
      0.0000000000       0.0909090909       0.6000000000
      0.0000000000       0.0909090909       0.8000000000
      0.0000000000       0.1818181818       0.0000000000
      0.0000000000       0.1818181818       0.2000000000
      0.0000000000       0.1818181818       0.4000000000
      0.0000000000       0.1818181818       0.6000000000
      0.0000000000       0.1818181818       0.8000000000
      0.0000000000       0.2727272727       0.0000000000
      0.0000000000       0.2727272727       0.2000000000
      0.0000000000       0.2727272727       0.4000000000
      0.0000000000       0.2727272727       0.6000000000
      0.0000000000       0.2727272727       0.8000000000
      0.0000000000       0.3636363636       0.0000000000
      0.0000000000       0.3636363636       0.2000000000
      0.0000000000       0.3636363636       0.4000000000
      0.0000000000       0.3636363636       0.6000000000
      0.0000000000       0.3636363636       0.8000000000
      0.0000000000       0.4545454545       0.0000000000
      0.0000000000       0.4545454545       0.2000000000
      0.0000000000       0.4545454545       0.4000000000
      0.0000000000       0.4545454545       0.6000000000
      0.0000000000       0.4545454545       0.8000000000
      0.0000000000       0.5454545455       0.0000000000
      0.0000000000       0.5454545455       0.2000000000
      0.0000000000       0.5454545455       0.4000000000
      0.0000000000       0.5454545455       0.6000000000
      0.0000000000       0.5454545455       0.8000000000
      0.0000000000       0.6363636364       0.0000000000
      0.0000000000       0.6363636364       0.2000000000
      0.0000000000       0.6363636364       0.4000000000
      0.0000000000       0.6363636364       0.6000000000
      0.0000000000       0.6363636364       0.8000000000
      0.0000000000       0.7272727273       0.0000000000
      0.0000000000       0.7272727273       0.2000000000
      0.0000000000       0.7272727273       0.4000000000
      0.0000000000       0.7272727273       0.6000000000
      0.0000000000       0.7272727273       0.8000000000
      0.0000000000       0.8181818182       0.0000000000
      0.0000000000       0.8181818182       0.2000000000
      0.0000000000       0.8181818182       0.4000000000
      0.0000000000       0.8181818182       0.6000000000
      0.0000000000       0.8181818182       0.8000000000
      0.0000000000       0.9090909091       0.0000000000
      0.0000000000       0.9090909091       0.2000000000
      0.0000000000       0.9090909091       0.4000000000
      0.0000000000       0.9090909091       0.6000000000
      0.0000000000       0.9090909091       0.8000000000
      0.0909090909       0.0000000000       0.0000000000
      0.0909090909       0.0000000000       0.2000000000
      0.0909090909       0.0000000000       0.4000000000
      0.0909090909       0.0000000000       0.6000000000
      0.0909090909       0.0000000000       0.8000000000
      0.0909090909       0.0909090909       0.0000000000
      0.0909090909       0.0909090909       0.2000000000
      0.0909090909       0.0909090909       0.4000000000
      0.0909090909       0.0909090909       0.6000000000
      0.0909090909       0.0909090909       0.8000000000
      0.0909090909       0.1818181818       0.0000000000
      0.0909090909       0.1818181818       0.2000000000
      0.0909090909       0.1818181818       0.4000000000
      0.0909090909       0.1818181818       0.6000000000
      0.0909090909       0.1818181818       0.8000000000
      0.0909090909       0.2727272727       0.0000000000
      0.0909090909       0.2727272727       0.2000000000
      0.0909090909       0.2727272727       0.4000000000
      0.0909090909       0.2727272727       0.6000000000
      0.0909090909       0.2727272727       0.8000000000
      0.0909090909       0.3636363636       0.0000000000
      0.0909090909       0.3636363636       0.2000000000
      0.0909090909       0.3636363636       0.4000000000
      0.0909090909       0.3636363636       0.6000000000
      0.0909090909       0.3636363636       0.8000000000
      0.0909090909       0.4545454545       0.0000000000
      0.0909090909       0.4545454545       0.2000000000
      0.0909090909       0.4545454545       0.4000000000
      0.0909090909       0.4545454545       0.6000000000
      0.0909090909       0.4545454545       0.8000000000
      0.0909090909       0.5454545455       0.0000000000
      0.0909090909       0.5454545455       0.2000000000
      0.0909090909       0.5454545455       0.4000000000
      0.0909090909       0.5454545455       0.6000000000
      0.0909090909       0.5454545455       0.8000000000
      0.0909090909       0.6363636364       0.0000000000
      0.0909090909       0.6363636364       0.2000000000
      0.0909090909       0.6363636364       0.4000000000
      0.0909090909       0.6363636364       0.6000000000
      0.0909090909       0.6363636364       0.8000000000
      0.0909090909       0.7272727273       0.0000000000
      0.0909090909       0.7272727273       0.2000000000
      0.0909090909       0.7272727273       0.4000000000
      0.0909090909       0.7272727273       0.6000000000
      0.0909090909       0.7272727273       0.8000000000
      0.0909090909       0.8181818182       0.0000000000
      0.0909090909       0.8181818182       0.2000000000
      0.0909090909       0.8181818182       0.4000000000
      0.0909090909       0.8181818182       0.6000000000
      0.0909090909       0.8181818182       0.8000000000
      0.0909090909       0.9090909091       0.0000000000
      0.0909090909       0.9090909091       0.2000000000
      0.0909090909       0.9090909091       0.4000000000
      0.0909090909       0.9090909091       0.6000000000
      0.0909090909       0.9090909091       0.8000000000
      0.1818181818       0.0000000000       0.0000000000
      0.1818181818       0.0000000000       0.2000000000
      0.1818181818       0.0000000000       0.4000000000
      0.1818181818       0.0000000000       0.6000000000
      0.1818181818       0.0000000000       0.8000000000
      0.1818181818       0.0909090909       0.0000000000
      0.1818181818       0.0909090909       0.2000000000
      0.1818181818       0.0909090909       0.4000000000
      0.1818181818       0.0909090909       0.6000000000
      0.1818181818       0.0909090909       0.8000000000
      0.1818181818       0.1818181818       0.0000000000
      0.1818181818       0.1818181818       0.2000000000
      0.1818181818       0.1818181818       0.4000000000
      0.1818181818       0.1818181818       0.6000000000
      0.1818181818       0.1818181818       0.8000000000
      0.1818181818       0.2727272727       0.0000000000
      0.1818181818       0.2727272727       0.2000000000
      0.1818181818       0.2727272727       0.4000000000
      0.1818181818       0.2727272727       0.6000000000
      0.1818181818       0.2727272727       0.8000000000
      0.1818181818       0.3636363636       0.0000000000
      0.1818181818       0.3636363636       0.2000000000
      0.1818181818       0.3636363636       0.4000000000
      0.1818181818       0.3636363636       0.6000000000
      0.1818181818       0.3636363636       0.8000000000
      0.1818181818       0.4545454545       0.0000000000
      0.1818181818       0.4545454545       0.2000000000
      0.1818181818       0.4545454545       0.4000000000
      0.1818181818       0.4545454545       0.6000000000
      0.1818181818       0.4545454545       0.8000000000
      0.1818181818       0.5454545455       0.0000000000
      0.1818181818       0.5454545455       0.2000000000
      0.1818181818       0.5454545455       0.4000000000
      0.1818181818       0.5454545455       0.6000000000
      0.1818181818       0.5454545455       0.8000000000
      0.1818181818       0.6363636364       0.0000000000
      0.1818181818       0.6363636364       0.2000000000
      0.1818181818       0.6363636364       0.4000000000
      0.1818181818       0.6363636364       0.6000000000
      0.1818181818       0.6363636364       0.8000000000
      0.1818181818       0.7272727273       0.0000000000
      0.1818181818       0.7272727273       0.2000000000
      0.1818181818       0.7272727273       0.4000000000
      0.1818181818       0.7272727273       0.6000000000
      0.1818181818       0.7272727273       0.8000000000
      0.1818181818       0.8181818182       0.0000000000
      0.1818181818       0.8181818182       0.2000000000
      0.1818181818       0.8181818182       0.4000000000
      0.1818181818       0.8181818182       0.6000000000
      0.1818181818       0.8181818182       0.8000000000
      0.1818181818       0.9090909091       0.0000000000
      0.1818181818       0.9090909091       0.2000000000
      0.1818181818       0.9090909091       0.4000000000
      0.1818181818       0.9090909091       0.6000000000
      0.1818181818       0.9090909091       0.8000000000
      0.2727272727       0.0000000000       0.0000000000
      0.2727272727       0.0000000000       0.2000000000
      0.2727272727       0.0000000000       0.4000000000
      0.2727272727       0.0000000000       0.6000000000
      0.2727272727       0.0000000000       0.8000000000
      0.2727272727       0.0909090909       0.0000000000
      0.2727272727       0.0909090909       0.2000000000
      0.2727272727       0.0909090909       0.4000000000
      0.2727272727       0.0909090909       0.6000000000
      0.2727272727       0.0909090909       0.8000000000
      0.2727272727       0.1818181818       0.0000000000
      0.2727272727       0.1818181818       0.2000000000
      0.2727272727       0.1818181818       0.4000000000
      0.2727272727       0.1818181818       0.6000000000
      0.2727272727       0.1818181818       0.8000000000
      0.2727272727       0.2727272727       0.0000000000
      0.2727272727       0.2727272727       0.2000000000
      0.2727272727       0.2727272727       0.4000000000
      0.2727272727       0.2727272727       0.6000000000
      0.2727272727       0.2727272727       0.8000000000
      0.2727272727       0.3636363636       0.0000000000
      0.2727272727       0.3636363636       0.2000000000
      0.2727272727       0.3636363636       0.4000000000
      0.2727272727       0.3636363636       0.6000000000
      0.2727272727       0.3636363636       0.8000000000
      0.2727272727       0.4545454545       0.0000000000
      0.2727272727       0.4545454545       0.2000000000
      0.2727272727       0.4545454545       0.4000000000
      0.2727272727       0.4545454545       0.6000000000
      0.2727272727       0.4545454545       0.8000000000
      0.2727272727       0.5454545455       0.0000000000
      0.2727272727       0.5454545455       0.2000000000
      0.2727272727       0.5454545455       0.4000000000
      0.2727272727       0.5454545455       0.6000000000
      0.2727272727       0.5454545455       0.8000000000
      0.2727272727       0.6363636364       0.0000000000
      0.2727272727       0.6363636364       0.2000000000
      0.2727272727       0.6363636364       0.4000000000
      0.2727272727       0.6363636364       0.6000000000
      0.2727272727       0.6363636364       0.8000000000
      0.2727272727       0.7272727273       0.0000000000
      0.2727272727       0.7272727273       0.2000000000
      0.2727272727       0.7272727273       0.4000000000
      0.2727272727       0.7272727273       0.6000000000
      0.2727272727       0.7272727273       0.8000000000
      0.2727272727       0.8181818182       0.0000000000
      0.2727272727       0.8181818182       0.2000000000
      0.2727272727       0.8181818182       0.4000000000
      0.2727272727       0.8181818182       0.6000000000
      0.2727272727       0.8181818182       0.8000000000
      0.2727272727       0.9090909091       0.0000000000
      0.2727272727       0.9090909091       0.2000000000
      0.2727272727       0.9090909091       0.4000000000
      0.2727272727       0.9090909091       0.6000000000
      0.2727272727       0.9090909091       0.8000000000
      0.3636363636       0.0000000000       0.0000000000
      0.3636363636       0.0000000000       0.2000000000
      0.3636363636       0.0000000000       0.4000000000
      0.3636363636       0.0000000000       0.6000000000
      0.3636363636       0.0000000000       0.8000000000
      0.3636363636       0.0909090909       0.0000000000
      0.3636363636       0.0909090909       0.2000000000
      0.3636363636       0.0909090909       0.4000000000
      0.3636363636       0.0909090909       0.6000000000
      0.3636363636       0.0909090909       0.8000000000
      0.3636363636       0.1818181818       0.0000000000
      0.3636363636       0.1818181818       0.2000000000
      0.3636363636       0.1818181818       0.4000000000
      0.3636363636       0.1818181818       0.6000000000
      0.3636363636       0.1818181818       0.8000000000
      0.3636363636       0.2727272727       0.0000000000
      0.3636363636       0.2727272727       0.2000000000
      0.3636363636       0.2727272727       0.4000000000
      0.3636363636       0.2727272727       0.6000000000
      0.3636363636       0.2727272727       0.8000000000
      0.3636363636       0.3636363636       0.0000000000
      0.3636363636       0.3636363636       0.2000000000
      0.3636363636       0.3636363636       0.4000000000
      0.3636363636       0.3636363636       0.6000000000
      0.3636363636       0.3636363636       0.8000000000
      0.3636363636       0.4545454545       0.0000000000
      0.3636363636       0.4545454545       0.2000000000
      0.3636363636       0.4545454545       0.4000000000
      0.3636363636       0.4545454545       0.6000000000
      0.3636363636       0.4545454545       0.8000000000
      0.3636363636       0.5454545455       0.0000000000
      0.3636363636       0.5454545455       0.2000000000
      0.3636363636       0.5454545455       0.4000000000
      0.3636363636       0.5454545455       0.6000000000
      0.3636363636       0.5454545455       0.8000000000
      0.3636363636       0.6363636364       0.0000000000
      0.3636363636       0.6363636364       0.2000000000
      0.3636363636       0.6363636364       0.4000000000
      0.3636363636       0.6363636364       0.6000000000
      0.3636363636       0.6363636364       0.8000000000
      0.3636363636       0.7272727273       0.0000000000
      0.3636363636       0.7272727273       0.2000000000
      0.3636363636       0.7272727273       0.4000000000
      0.3636363636       0.7272727273       0.6000000000
      0.3636363636       0.7272727273       0.8000000000
      0.3636363636       0.8181818182       0.0000000000
      0.3636363636       0.8181818182       0.2000000000
      0.3636363636       0.8181818182       0.4000000000
      0.3636363636       0.8181818182       0.6000000000
      0.3636363636       0.8181818182       0.8000000000
      0.3636363636       0.9090909091       0.0000000000
      0.3636363636       0.9090909091       0.2000000000
      0.3636363636       0.9090909091       0.4000000000
      0.3636363636       0.9090909091       0.6000000000
      0.3636363636       0.9090909091       0.8000000000
      0.4545454545       0.0000000000       0.0000000000
      0.4545454545       0.0000000000       0.2000000000
      0.4545454545       0.0000000000       0.4000000000
      0.4545454545       0.0000000000       0.6000000000
      0.4545454545       0.0000000000       0.8000000000
      0.4545454545       0.0909090909       0.0000000000
      0.4545454545       0.0909090909       0.2000000000
      0.4545454545       0.0909090909       0.4000000000
      0.4545454545       0.0909090909       0.6000000000
      0.4545454545       0.0909090909       0.8000000000
      0.4545454545       0.1818181818       0.0000000000
      0.4545454545       0.1818181818       0.2000000000
      0.4545454545       0.1818181818       0.4000000000
      0.4545454545       0.1818181818       0.6000000000
      0.4545454545       0.1818181818       0.8000000000
      0.4545454545       0.2727272727       0.0000000000
      0.4545454545       0.2727272727       0.2000000000
      0.4545454545       0.2727272727       0.4000000000
      0.4545454545       0.2727272727       0.6000000000
      0.4545454545       0.2727272727       0.8000000000
      0.4545454545       0.3636363636       0.0000000000
      0.4545454545       0.3636363636       0.2000000000
      0.4545454545       0.3636363636       0.4000000000
      0.4545454545       0.3636363636       0.6000000000
      0.4545454545       0.3636363636       0.8000000000
      0.4545454545       0.4545454545       0.0000000000
      0.4545454545       0.4545454545       0.2000000000
      0.4545454545       0.4545454545       0.4000000000
      0.4545454545       0.4545454545       0.6000000000
      0.4545454545       0.4545454545       0.8000000000
      0.4545454545       0.5454545455       0.0000000000
      0.4545454545       0.5454545455       0.2000000000
      0.4545454545       0.5454545455       0.4000000000
      0.4545454545       0.5454545455       0.6000000000
      0.4545454545       0.5454545455       0.8000000000
      0.4545454545       0.6363636364       0.0000000000
      0.4545454545       0.6363636364       0.2000000000
      0.4545454545       0.6363636364       0.4000000000
      0.4545454545       0.6363636364       0.6000000000
      0.4545454545       0.6363636364       0.8000000000
      0.4545454545       0.7272727273       0.0000000000
      0.4545454545       0.7272727273       0.2000000000
      0.4545454545       0.7272727273       0.4000000000
      0.4545454545       0.7272727273       0.6000000000
      0.4545454545       0.7272727273       0.8000000000
      0.4545454545       0.8181818182       0.0000000000
      0.4545454545       0.8181818182       0.2000000000
      0.4545454545       0.8181818182       0.4000000000
      0.4545454545       0.8181818182       0.6000000000
      0.4545454545       0.8181818182       0.8000000000
      0.4545454545       0.9090909091       0.0000000000
      0.4545454545       0.9090909091       0.2000000000
      0.4545454545       0.9090909091       0.4000000000
      0.4545454545       0.9090909091       0.6000000000
      0.4545454545       0.9090909091       0.8000000000
      0.5454545455       0.0000000000       0.0000000000
      0.5454545455       0.0000000000       0.2000000000
      0.5454545455       0.0000000000       0.4000000000
      0.5454545455       0.0000000000       0.6000000000
      0.5454545455       0.0000000000       0.8000000000
      0.5454545455       0.0909090909       0.0000000000
      0.5454545455       0.0909090909       0.2000000000
      0.5454545455       0.0909090909       0.4000000000
      0.5454545455       0.0909090909       0.6000000000
      0.5454545455       0.0909090909       0.8000000000
      0.5454545455       0.1818181818       0.0000000000
      0.5454545455       0.1818181818       0.2000000000
      0.5454545455       0.1818181818       0.4000000000
      0.5454545455       0.1818181818       0.6000000000
      0.5454545455       0.1818181818       0.8000000000
      0.5454545455       0.2727272727       0.0000000000
      0.5454545455       0.2727272727       0.2000000000
      0.5454545455       0.2727272727       0.4000000000
      0.5454545455       0.2727272727       0.6000000000
      0.5454545455       0.2727272727       0.8000000000
      0.5454545455       0.3636363636       0.0000000000
      0.5454545455       0.3636363636       0.2000000000
      0.5454545455       0.3636363636       0.4000000000
      0.5454545455       0.3636363636       0.6000000000
      0.5454545455       0.3636363636       0.8000000000
      0.5454545455       0.4545454545       0.0000000000
      0.5454545455       0.4545454545       0.2000000000
      0.5454545455       0.4545454545       0.4000000000
      0.5454545455       0.4545454545       0.6000000000
      0.5454545455       0.4545454545       0.8000000000
      0.5454545455       0.5454545455       0.0000000000
      0.5454545455       0.5454545455       0.2000000000
      0.5454545455       0.5454545455       0.4000000000
      0.5454545455       0.5454545455       0.6000000000
      0.5454545455       0.5454545455       0.8000000000
      0.5454545455       0.6363636364       0.0000000000
      0.5454545455       0.6363636364       0.2000000000
      0.5454545455       0.6363636364       0.4000000000
      0.5454545455       0.6363636364       0.6000000000
      0.5454545455       0.6363636364       0.8000000000
      0.5454545455       0.7272727273       0.0000000000
      0.5454545455       0.7272727273       0.2000000000
      0.5454545455       0.7272727273       0.4000000000
      0.5454545455       0.7272727273       0.6000000000
      0.5454545455       0.7272727273       0.8000000000
      0.5454545455       0.8181818182       0.0000000000
      0.5454545455       0.8181818182       0.2000000000
      0.5454545455       0.8181818182       0.4000000000
      0.5454545455       0.8181818182       0.6000000000
      0.5454545455       0.8181818182       0.8000000000
      0.5454545455       0.9090909091       0.0000000000
      0.5454545455       0.9090909091       0.2000000000
      0.5454545455       0.9090909091       0.4000000000
      0.5454545455       0.9090909091       0.6000000000
      0.5454545455       0.9090909091       0.8000000000
      0.6363636364       0.0000000000       0.0000000000
      0.6363636364       0.0000000000       0.2000000000
      0.6363636364       0.0000000000       0.4000000000
      0.6363636364       0.0000000000       0.6000000000
      0.6363636364       0.0000000000       0.8000000000
      0.6363636364       0.0909090909       0.0000000000
      0.6363636364       0.0909090909       0.2000000000
      0.6363636364       0.0909090909       0.4000000000
      0.6363636364       0.0909090909       0.6000000000
      0.6363636364       0.0909090909       0.8000000000
      0.6363636364       0.1818181818       0.0000000000
      0.6363636364       0.1818181818       0.2000000000
      0.6363636364       0.1818181818       0.4000000000
      0.6363636364       0.1818181818       0.6000000000
      0.6363636364       0.1818181818       0.8000000000
      0.6363636364       0.2727272727       0.0000000000
      0.6363636364       0.2727272727       0.2000000000
      0.6363636364       0.2727272727       0.4000000000
      0.6363636364       0.2727272727       0.6000000000
      0.6363636364       0.2727272727       0.8000000000
      0.6363636364       0.3636363636       0.0000000000
      0.6363636364       0.3636363636       0.2000000000
      0.6363636364       0.3636363636       0.4000000000
      0.6363636364       0.3636363636       0.6000000000
      0.6363636364       0.3636363636       0.8000000000
      0.6363636364       0.4545454545       0.0000000000
      0.6363636364       0.4545454545       0.2000000000
      0.6363636364       0.4545454545       0.4000000000
      0.6363636364       0.4545454545       0.6000000000
      0.6363636364       0.4545454545       0.8000000000
      0.6363636364       0.5454545455       0.0000000000
      0.6363636364       0.5454545455       0.2000000000
      0.6363636364       0.5454545455       0.4000000000
      0.6363636364       0.5454545455       0.6000000000
      0.6363636364       0.5454545455       0.8000000000
      0.6363636364       0.6363636364       0.0000000000
      0.6363636364       0.6363636364       0.2000000000
      0.6363636364       0.6363636364       0.4000000000
      0.6363636364       0.6363636364       0.6000000000
      0.6363636364       0.6363636364       0.8000000000
      0.6363636364       0.7272727273       0.0000000000
      0.6363636364       0.7272727273       0.2000000000
      0.6363636364       0.7272727273       0.4000000000
      0.6363636364       0.7272727273       0.6000000000
      0.6363636364       0.7272727273       0.8000000000
      0.6363636364       0.8181818182       0.0000000000
      0.6363636364       0.8181818182       0.2000000000
      0.6363636364       0.8181818182       0.4000000000
      0.6363636364       0.8181818182       0.6000000000
      0.6363636364       0.8181818182       0.8000000000
      0.6363636364       0.9090909091       0.0000000000
      0.6363636364       0.9090909091       0.2000000000
      0.6363636364       0.9090909091       0.4000000000
      0.6363636364       0.9090909091       0.6000000000
      0.6363636364       0.9090909091       0.8000000000
      0.7272727273       0.0000000000       0.0000000000
      0.7272727273       0.0000000000       0.2000000000
      0.7272727273       0.0000000000       0.4000000000
      0.7272727273       0.0000000000       0.6000000000
      0.7272727273       0.0000000000       0.8000000000
      0.7272727273       0.0909090909       0.0000000000
      0.7272727273       0.0909090909       0.2000000000
      0.7272727273       0.0909090909       0.4000000000
      0.7272727273       0.0909090909       0.6000000000
      0.7272727273       0.0909090909       0.8000000000
      0.7272727273       0.1818181818       0.0000000000
      0.7272727273       0.1818181818       0.2000000000
      0.7272727273       0.1818181818       0.4000000000
      0.7272727273       0.1818181818       0.6000000000
      0.7272727273       0.1818181818       0.8000000000
      0.7272727273       0.2727272727       0.0000000000
      0.7272727273       0.2727272727       0.2000000000
      0.7272727273       0.2727272727       0.4000000000
      0.7272727273       0.2727272727       0.6000000000
      0.7272727273       0.2727272727       0.8000000000
      0.7272727273       0.3636363636       0.0000000000
      0.7272727273       0.3636363636       0.2000000000
      0.7272727273       0.3636363636       0.4000000000
      0.7272727273       0.3636363636       0.6000000000
      0.7272727273       0.3636363636       0.8000000000
      0.7272727273       0.4545454545       0.0000000000
      0.7272727273       0.4545454545       0.2000000000
      0.7272727273       0.4545454545       0.4000000000
      0.7272727273       0.4545454545       0.6000000000
      0.7272727273       0.4545454545       0.8000000000
      0.7272727273       0.5454545455       0.0000000000
      0.7272727273       0.5454545455       0.2000000000
      0.7272727273       0.5454545455       0.4000000000
      0.7272727273       0.5454545455       0.6000000000
      0.7272727273       0.5454545455       0.8000000000
      0.7272727273       0.6363636364       0.0000000000
      0.7272727273       0.6363636364       0.2000000000
      0.7272727273       0.6363636364       0.4000000000
      0.7272727273       0.6363636364       0.6000000000
      0.7272727273       0.6363636364       0.8000000000
      0.7272727273       0.7272727273       0.0000000000
      0.7272727273       0.7272727273       0.2000000000
      0.7272727273       0.7272727273       0.4000000000
      0.7272727273       0.7272727273       0.6000000000
      0.7272727273       0.7272727273       0.8000000000
      0.7272727273       0.8181818182       0.0000000000
      0.7272727273       0.8181818182       0.2000000000
      0.7272727273       0.8181818182       0.4000000000
      0.7272727273       0.8181818182       0.6000000000
      0.7272727273       0.8181818182       0.8000000000
      0.7272727273       0.9090909091       0.0000000000
      0.7272727273       0.9090909091       0.2000000000
      0.7272727273       0.9090909091       0.4000000000
      0.7272727273       0.9090909091       0.6000000000
      0.7272727273       0.9090909091       0.8000000000
      0.8181818182       0.0000000000       0.0000000000
      0.8181818182       0.0000000000       0.2000000000
      0.8181818182       0.0000000000       0.4000000000
      0.8181818182       0.0000000000       0.6000000000
      0.8181818182       0.0000000000       0.8000000000
      0.8181818182       0.0909090909       0.0000000000
      0.8181818182       0.0909090909       0.2000000000
      0.8181818182       0.0909090909       0.4000000000
      0.8181818182       0.0909090909       0.6000000000
      0.8181818182       0.0909090909       0.8000000000
      0.8181818182       0.1818181818       0.0000000000
      0.8181818182       0.1818181818       0.2000000000
      0.8181818182       0.1818181818       0.4000000000
      0.8181818182       0.1818181818       0.6000000000
      0.8181818182       0.1818181818       0.8000000000
      0.8181818182       0.2727272727       0.0000000000
      0.8181818182       0.2727272727       0.2000000000
      0.8181818182       0.2727272727       0.4000000000
      0.8181818182       0.2727272727       0.6000000000
      0.8181818182       0.2727272727       0.8000000000