mp_grid = 2, 2, 2
num_iter = 12
num_wann = 4
wvfn_formatted = .true.

begin atoms_cart
ang
Ga         0.0000000000       0.0000000000       0.0000000000 
As        -1.4200000000       1.4200000000       1.4200000000 
end atoms_cart

begin explicit_kpath
      0.0000000000       0.0000000000       0.0000000000
      0.3750000000       0.3750000000       0.7500000000
      0.5000000000       0.5000000000       0.5000000000
      0.6250000000       0.2500000000       0.6250000000
      0.5000000000       0.2500000000       0.7500000000
      0.5000000000       0.0000000000       0.5000000000
end explicit_kpath

begin explicit_kpath_labels
G       0.0000000000       0.0000000000       0.0000000000
K       0.3750000000       0.3750000000       0.7500000000
L       0.5000000000       0.5000000000       0.5000000000
U       0.6250000000       0.2500000000       0.6250000000
W       0.5000000000       0.2500000000       0.7500000000
X       0.5000000000       0.0000000000       0.5000000000
end explicit_kpath_labels

begin kpoints
      0.0000000000       0.0000000000       0.0000000000
      0.0000000000       0.0000000000       0.5000000000
      0.0000000000       0.5000000000       0.0000000000
      0.0000000000       0.5000000000       0.5000000000
      0.5000000000       0.0000000000       0.0000000000
      0.5000000000       0.0000000000       0.5000000000
      0.5000000000       0.5000000000       0.0000000000
      0.5000000000       0.5000000000       0.5000000000
end kpoints

begin projections
random
c=-1.4200000000,1.4200000000,1.4200000000:l=-3,mr=1:::r=1:
c=-1.4200000000,1.4200000000,1.4200000000:l=-3,mr=2:::r=1:
c=-1.4200000000,1.4200000000,1.4200000000:l=-3,mr=3:::r=1:
c=-1.4200000000,1.4200000000,1.4200000000:l=-3,mr=4:::r=1:
end projections

begin unit_cell_cart
ang
     -2.8400000000       0.0000000000       2.8400000000
      0.0000000000       2.8400000000       2.8400000000
     -2.8400000000       2.8400000000       0.0000000000
end unit_cell_cart
